<instance format="XCSP3" type="COP">
  <variables>
    <array id="x" size="[87]"> 0..86 </array>
  </variables>
  <constraints>
    <group>
      <intension> ne(%0,%1) </intension>
      <args> x[0] x[3] </args>
      <args> x[0] x[13] </args>
      <args> x[0] x[19] </args>
      <args> x[0] x[65] </args>
      <args> x[0] x[78] </args>
      <args> x[0] x[82] </args>
      <args> x[1] x[3] </args>
      <args> x[1] x[6] </args>
      <args> x[1] x[10] </args>
      <args> x[1] x[15] </args>
      <args> x[1] x[18] </args>
      <args> x[1] x[22] </args>
      <args> x[1] x[28] </args>
      <args> x[1] x[31] </args>
      <args> x[1] x[32] </args>
      <args> x[1] x[33] </args>
      <args> x[1] x[34] </args>
      <args> x[1] x[38] </args>
      <args> x[1] x[41] </args>
      <args> x[1] x[42] </args>
      <args> x[1] x[45] </args>
      <args> x[1] x[52] </args>
      <args> x[1] x[53] </args>
      <args> x[1] x[54] </args>
      <args> x[1] x[55] </args>
      <args> x[1] x[57] </args>
      <args> x[1] x[65] </args>
      <args> x[1] x[66] </args>
      <args> x[1] x[71] </args>
      <args> x[1] x[73] </args>
      <args> x[1] x[75] </args>
      <args> x[1] x[78] </args>
      <args> x[1] x[79] </args>
      <args> x[1] x[80] </args>
      <args> x[1] x[82] </args>
      <args> x[1] x[85] </args>
      <args> x[1] x[86] </args>
      <args> x[2] x[21] </args>
      <args> x[2] x[22] </args>
      <args> x[2] x[32] </args>
      <args> x[2] x[57] </args>
      <args> x[2] x[71] </args>
      <args> x[2] x[82] </args>
      <args> x[2] x[86] </args>
      <args> x[3] x[11] </args>
      <args> x[3] x[13] </args>
      <args> x[3] x[17] </args>
      <args> x[3] x[18] </args>
      <args> x[3] x[19] </args>
      <args> x[3] x[20] </args>
      <args> x[3] x[31] </args>
      <args> x[3] x[33] </args>
      <args> x[3] x[45] </args>
      <args> x[3] x[48] </args>
      <args> x[3] x[54] </args>
      <args> x[3] x[58] </args>
      <args> x[3] x[65] </args>
      <args> x[3] x[73] </args>
      <args> x[3] x[78] </args>
      <args> x[3] x[82] </args>
      <args> x[3] x[86] </args>
      <args> x[4] x[30] </args>
      <args> x[4] x[33] </args>
      <args> x[4] x[77] </args>
      <args> x[4] x[82] </args>
      <args> x[5] x[46] </args>
      <args> x[5] x[82] </args>
      <args> x[6] x[18] </args>
      <args> x[6] x[32] </args>
      <args> x[6] x[33] </args>
      <args> x[6] x[34] </args>
      <args> x[6] x[57] </args>
      <args> x[6] x[82] </args>
      <args> x[6] x[86] </args>
      <args> x[7] x[48] </args>
      <args> x[7] x[70] </args>
      <args> x[7] x[82] </args>
      <args> x[8] x[10] </args>
      <args> x[8] x[13] </args>
      <args> x[8] x[39] </args>
      <args> x[8] x[56] </args>
      <args> x[8] x[75] </args>
      <args> x[8] x[82] </args>
      <args> x[9] x[41] </args>
      <args> x[9] x[82] </args>
      <args> x[10] x[13] </args>
      <args> x[10] x[39] </args>
      <args> x[10] x[66] </args>
      <args> x[10] x[75] </args>
      <args> x[10] x[82] </args>
      <args> x[11] x[13] </args>
      <args> x[11] x[19] </args>
      <args> x[11] x[20] </args>
      <args> x[11] x[31] </args>
      <args> x[11] x[33] </args>
      <args> x[11] x[35] </args>
      <args> x[11] x[45] </args>
      <args> x[11] x[51] </args>
      <args> x[11] x[67] </args>
      <args> x[11] x[73] </args>
      <args> x[11] x[82] </args>
      <args> x[12] x[18] </args>
      <args> x[12] x[26] </args>
      <args> x[12] x[42] </args>
      <args> x[12] x[59] </args>
      <args> x[12] x[84] </args>
      <args> x[13] x[19] </args>
      <args> x[13] x[20] </args>
      <args> x[13] x[31] </args>
      <args> x[13] x[33] </args>
      <args> x[13] x[39] </args>
      <args> x[13] x[45] </args>
      <args> x[13] x[48] </args>
      <args> x[13] x[65] </args>
      <args> x[13] x[73] </args>
      <args> x[13] x[75] </args>
      <args> x[13] x[78] </args>
      <args> x[13] x[82] </args>
      <args> x[14] x[48] </args>
      <args> x[14] x[60] </args>
      <args> x[14] x[82] </args>
      <args> x[15] x[21] </args>
      <args> x[15] x[41] </args>
      <args> x[15] x[62] </args>
      <args> x[15] x[65] </args>
      <args> x[15] x[66] </args>
      <args> x[15] x[75] </args>
      <args> x[15] x[76] </args>
      <args> x[15] x[82] </args>
      <args> x[16] x[18] </args>
      <args> x[16] x[36] </args>
      <args> x[16] x[44] </args>
      <args> x[16] x[49] </args>
      <args> x[16] x[57] </args>
      <args> x[16] x[72] </args>
      <args> x[16] x[82] </args>
      <args> x[16] x[83] </args>
      <args> x[16] x[86] </args>
      <args> x[17] x[48] </args>
      <args> x[17] x[58] </args>
      <args> x[17] x[70] </args>
      <args> x[17] x[82] </args>
      <args> x[18] x[22] </args>
      <args> x[18] x[26] </args>
      <args> x[18] x[31] </args>
      <args> x[18] x[33] </args>
      <args> x[18] x[34] </args>
      <args> x[18] x[36] </args>
      <args> x[18] x[41] </args>
      <args> x[18] x[42] </args>
      <args> x[18] x[44] </args>
      <args> x[18] x[45] </args>
      <args> x[18] x[48] </args>
      <args> x[18] x[49] </args>
      <args> x[18] x[50] </args>
      <args> x[18] x[51] </args>
      <args> x[18] x[52] </args>
      <args> x[18] x[54] </args>
      <args> x[18] x[57] </args>
      <args> x[18] x[59] </args>
      <args> x[18] x[65] </args>
      <args> x[18] x[67] </args>
      <args> x[18] x[68] </args>
      <args> x[18] x[70] </args>
      <args> x[18] x[71] </args>
      <args> x[18] x[72] </args>
      <args> x[18] x[73] </args>
      <args> x[18] x[80] </args>
      <args> x[18] x[82] </args>
      <args> x[18] x[83] </args>
      <args> x[18] x[84] </args>
      <args> x[18] x[86] </args>
      <args> x[19] x[20] </args>
      <args> x[19] x[31] </args>
      <args> x[19] x[33] </args>
      <args> x[19] x[45] </args>
      <args> x[19] x[48] </args>
      <args> x[19] x[58] </args>
      <args> x[19] x[65] </args>
      <args> x[19] x[70] </args>
      <args> x[19] x[73] </args>
      <args> x[19] x[78] </args>
      <args> x[19] x[82] </args>
      <args> x[19] x[86] </args>
      <args> x[20] x[31] </args>
      <args> x[20] x[33] </args>
      <args> x[20] x[45] </args>
      <args> x[20] x[65] </args>
      <args> x[20] x[73] </args>
      <args> x[20] x[78] </args>
      <args> x[20] x[82] </args>
      <args> x[21] x[41] </args>
      <args> x[21] x[62] </args>
      <args> x[21] x[76] </args>
      <args> x[21] x[82] </args>
      <args> x[22] x[28] </args>
      <args> x[22] x[32] </args>
      <args> x[22] x[34] </args>
      <args> x[22] x[42] </args>
      <args> x[22] x[66] </args>
      <args> x[22] x[71] </args>
      <args> x[22] x[82] </args>
      <args> x[22] x[86] </args>
      <args> x[23] x[65] </args>
      <args> x[23] x[66] </args>
      <args> x[23] x[79] </args>
      <args> x[23] x[82] </args>
      <args> x[24] x[82] </args>
      <args> x[25] x[82] </args>
      <args> x[26] x[42] </args>
      <args> x[26] x[59] </args>
      <args> x[26] x[84] </args>
      <args> x[27] x[50] </args>
      <args> x[27] x[67] </args>
      <args> x[27] x[68] </args>
      <args> x[27] x[82] </args>
      <args> x[28] x[32] </args>
      <args> x[28] x[34] </args>
      <args> x[28] x[66] </args>
      <args> x[28] x[71] </args>
      <args> x[28] x[82] </args>
      <args> x[28] x[86] </args>
      <args> x[29] x[38] </args>
      <args> x[29] x[82] </args>
      <args> x[30] x[33] </args>
      <args> x[30] x[43] </args>
      <args> x[30] x[66] </args>
      <args> x[30] x[75] </args>
      <args> x[30] x[82] </args>
      <args> x[31] x[33] </args>
      <args> x[31] x[45] </args>
      <args> x[31] x[54] </args>
      <args> x[31] x[65] </args>
      <args> x[31] x[69] </args>
      <args> x[31] x[73] </args>
      <args> x[31] x[82] </args>
      <args> x[31] x[86] </args>
      <args> x[32] x[57] </args>
      <args> x[32] x[66] </args>
      <args> x[32] x[71] </args>
      <args> x[32] x[82] </args>
      <args> x[32] x[86] </args>
      <args> x[33] x[34] </args>
      <args> x[33] x[45] </args>
      <args> x[33] x[54] </args>
      <args> x[33] x[57] </args>
      <args> x[33] x[65] </args>
      <args> x[33] x[69] </args>
      <args> x[33] x[70] </args>
      <args> x[33] x[73] </args>
      <args> x[33] x[82] </args>
      <args> x[33] x[86] </args>
      <args> x[34] x[53] </args>
      <args> x[34] x[55] </args>
      <args> x[34] x[57] </args>
      <args> x[34] x[65] </args>
      <args> x[34] x[66] </args>
      <args> x[34] x[71] </args>
      <args> x[34] x[75] </args>
      <args> x[34] x[82] </args>
      <args> x[34] x[85] </args>
      <args> x[34] x[86] </args>
      <args> x[35] x[51] </args>
      <args> x[35] x[82] </args>
      <args> x[36] x[44] </args>
      <args> x[36] x[49] </args>
      <args> x[36] x[57] </args>
      <args> x[36] x[72] </args>
      <args> x[36] x[82] </args>
      <args> x[36] x[83] </args>
      <args> x[36] x[86] </args>
      <args> x[37] x[82] </args>
      <args> x[38] x[65] </args>
      <args> x[38] x[82] </args>
      <args> x[39] x[56] </args>
      <args> x[39] x[75] </args>
      <args> x[39] x[82] </args>
      <args> x[40] x[82] </args>
      <args> x[41] x[42] </args>
      <args> x[41] x[52] </args>
      <args> x[41] x[62] </args>
      <args> x[41] x[65] </args>
      <args> x[41] x[66] </args>
      <args> x[41] x[76] </args>
      <args> x[41] x[80] </args>
      <args> x[41] x[82] </args>
      <args> x[41] x[86] </args>
      <args> x[42] x[52] </args>
      <args> x[42] x[59] </args>
      <args> x[42] x[65] </args>
      <args> x[42] x[71] </args>
      <args> x[42] x[80] </args>
      <args> x[42] x[82] </args>
      <args> x[42] x[84] </args>
      <args> x[42] x[86] </args>
      <args> x[43] x[75] </args>
      <args> x[43] x[82] </args>
      <args> x[44] x[49] </args>
      <args> x[44] x[57] </args>
      <args> x[44] x[72] </args>
      <args> x[44] x[82] </args>
      <args> x[44] x[83] </args>
      <args> x[44] x[86] </args>
      <args> x[45] x[54] </args>
      <args> x[45] x[65] </args>
      <args> x[45] x[69] </args>
      <args> x[45] x[70] </args>
      <args> x[45] x[73] </args>
      <args> x[45] x[82] </args>
      <args> x[45] x[86] </args>
      <args> x[46] x[82] </args>
      <args> x[47] x[82] </args>
      <args> x[48] x[51] </args>
      <args> x[48] x[58] </args>
      <args> x[48] x[60] </args>
      <args> x[48] x[65] </args>
      <args> x[48] x[67] </args>
      <args> x[48] x[68] </args>
      <args> x[48] x[70] </args>
      <args> x[48] x[78] </args>
      <args> x[48] x[82] </args>
      <args> x[49] x[57] </args>
      <args> x[49] x[72] </args>
      <args> x[49] x[82] </args>
      <args> x[49] x[83] </args>
      <args> x[49] x[86] </args>
      <args> x[50] x[59] </args>
      <args> x[50] x[67] </args>
      <args> x[50] x[68] </args>
      <args> x[50] x[82] </args>
      <args> x[50] x[84] </args>
      <args> x[51] x[67] </args>
      <args> x[51] x[68] </args>
      <args> x[51] x[82] </args>
      <args> x[52] x[65] </args>
      <args> x[52] x[80] </args>
      <args> x[52] x[82] </args>
      <args> x[52] x[86] </args>
      <args> x[53] x[66] </args>
      <args> x[53] x[75] </args>
      <args> x[53] x[82] </args>
      <args> x[54] x[65] </args>
      <args> x[54] x[69] </args>
      <args> x[54] x[73] </args>
      <args> x[54] x[82] </args>
      <args> x[54] x[86] </args>
      <args> x[55] x[82] </args>
      <args> x[56] x[82] </args>
      <args> x[57] x[68] </args>
      <args> x[57] x[70] </args>
      <args> x[57] x[71] </args>
      <args> x[57] x[72] </args>
      <args> x[57] x[82] </args>
      <args> x[57] x[83] </args>
      <args> x[57] x[86] </args>
      <args> x[58] x[70] </args>
      <args> x[58] x[82] </args>
      <args> x[59] x[84] </args>
      <args> x[60] x[82] </args>
      <args> x[61] x[82] </args>
      <args> x[62] x[76] </args>
      <args> x[62] x[82] </args>
      <args> x[63] x[82] </args>
      <args> x[64] x[82] </args>
      <args> x[65] x[66] </args>
      <args> x[65] x[73] </args>
      <args> x[65] x[75] </args>
      <args> x[65] x[78] </args>
      <args> x[65] x[79] </args>
      <args> x[65] x[80] </args>
      <args> x[65] x[82] </args>
      <args> x[65] x[85] </args>
      <args> x[65] x[86] </args>
      <args> x[66] x[71] </args>
      <args> x[66] x[75] </args>
      <args> x[66] x[79] </args>
      <args> x[66] x[82] </args>
      <args> x[66] x[86] </args>
      <args> x[67] x[68] </args>
      <args> x[67] x[82] </args>
      <args> x[68] x[70] </args>
      <args> x[68] x[82] </args>
      <args> x[69] x[73] </args>
      <args> x[69] x[82] </args>
      <args> x[70] x[82] </args>
      <args> x[71] x[82] </args>
      <args> x[71] x[86] </args>
      <args> x[72] x[82] </args>
      <args> x[72] x[83] </args>
      <args> x[72] x[86] </args>
      <args> x[73] x[82] </args>
      <args> x[73] x[86] </args>
      <args> x[74] x[82] </args>
      <args> x[75] x[79] </args>
      <args> x[75] x[82] </args>
      <args> x[76] x[82] </args>
      <args> x[77] x[82] </args>
      <args> x[78] x[82] </args>
      <args> x[79] x[82] </args>
      <args> x[80] x[82] </args>
      <args> x[80] x[86] </args>
      <args> x[81] x[82] </args>
      <args> x[82] x[83] </args>
      <args> x[82] x[85] </args>
      <args> x[82] x[86] </args>
      <args> x[83] x[86] </args>
    </group>
  </constraints>
  <objectives>
    <minimize type="maximum"> x[] </minimize>
  </objectives>
</instance>
